words_hard_train/6622.qaiger
aag 102 16 0 1 86
2
4
8
12
16
20
24
28
32
48
64
70
90
110
130
150
205
6 3 5
10 6 9
14 10 13
18 14 17
22 18 21
26 22 25
30 26 29
34 30 33
36 31 32
38 35 37
40 7 25
42 41 8
44 40 9
46 43 45
50 46 49
52 47 48
54 51 53
56 2 4
58 57 40
60 4 24
62 59 61
66 62 65
68 54 67
72 70 2
74 63 64
76 73 75
78 68 77
80 79 53
82 11 25
84 83 13
86 82 12
88 85 87
92 89 91
94 88 90
96 93 95
98 81 96
100 99 95
102 15 25
104 103 17
106 102 16
108 105 107
112 109 111
114 108 110
116 113 115
118 101 116
120 119 115
122 19 25
124 123 21
126 122 20
128 125 127
132 129 131
134 128 130
136 133 135
138 121 136
140 139 135
142 23 25
144 143 29
146 142 28
148 145 147
152 149 151
154 148 150
156 153 155
158 141 156
160 159 155
162 38 161
164 39 160
166 163 165
168 71 3
170 80 97
172 171 99
174 173 73
176 120 137
178 177 139
180 174 179
182 55 67
184 180 183
186 169 184
188 54 75
190 100 117
192 191 119
194 189 193
196 140 157
198 197 159
200 194 199
202 186 200
204 167 202
i0 1 x2[0]
i1 1 x2[1]
i2 1 x2[2]
i3 1 x2[3]
i4 1 x2[4]
i5 1 x2[5]
i6 1 x2[7]
i7 1 x2[6]
i8 2 y2[0]
i9 2 y2[5]
i10 2 y2[6]
i11 2 y2[7]
i12 2 y2[4]
i13 2 y2[3]
i14 2 y2[2]
i15 2 y2[1]
o0 bool[0]
c
simplified
  !=
    abs
      1
    subtract
      reverse
        2 y2
      abs
        1 x2
