words_hard_train/6622.qaiger.qdimacs
p cnf 102 259
a 1 2 4 6 8 10 12 14 0
e 3 5 7 9 11 13 15 16 17 18 19 20 21 22 23 24 25 26 27 28 29 30 31 32 33 34 35 36 37 38 39 40 41 42 43 44 45 46 47 48 49 50 51 52 53 54 55 56 57 58 59 60 61 62 63 64 65 66 67 68 69 70 71 72 73 74 75 76 77 78 79 80 81 82 83 84 85 86 87 88 89 90 91 92 93 94 95 96 97 98 99 100 101 102 0
1 2 3 0
-1 -3 0
-2 -3 0
-3 4 5 0
3 -5 0
-4 -5 0
-5 6 7 0
5 -7 0
-6 -7 0
-7 8 9 0
7 -9 0
-8 -9 0
-9 10 11 0
9 -11 0
-10 -11 0
-11 12 13 0
11 -13 0
-12 -13 0
-13 14 15 0
13 -15 0
-14 -15 0
-15 16 17 0
15 -17 0
-16 -17 0
15 -16 18 0
-15 -18 0
16 -18 0
17 18 19 0
-17 -19 0
-18 -19 0
3 12 20 0
-3 -20 0
-12 -20 0
20 -4 21 0
-20 -21 0
4 -21 0
-20 4 22 0
20 -22 0
-4 -22 0
21 22 23 0
-21 -23 0
-22 -23 0
-23 24 25 0
23 -25 0
-24 -25 0
23 -24 26 0
-23 -26 0
24 -26 0
25 26 27 0
-25 -27 0
-26 -27 0
-1 -2 28 0
1 -28 0
2 -28 0
28 -20 29 0
-28 -29 0
20 -29 0
-2 -12 30 0
2 -30 0
12 -30 0
29 30 31 0
-29 -31 0
-30 -31 0
-31 32 33 0
31 -33 0
-32 -33 0
-27 33 34 0
27 -34 0
-33 -34 0
-35 -1 36 0
35 -36 0
1 -36 0
31 -32 37 0
-31 -37 0
32 -37 0
36 37 38 0
-36 -38 0
-37 -38 0
-34 38 39 0
34 -39 0
-38 -39 0
39 26 40 0
-39 -40 0
-26 -40 0
5 12 41 0
-5 -41 0
-12 -41 0
41 6 42 0
-41 -42 0
-6 -42 0
-41 -6 43 0
41 -43 0
6 -43 0
42 43 44 0
-42 -44 0
-43 -44 0
44 45 46 0
-44 -46 0
-45 -46 0
-44 -45 47 0
44 -47 0
45 -47 0
46 47 48 0
-46 -48 0
-47 -48 0
40 -48 49 0
-40 -49 0
48 -49 0
49 47 50 0
-49 -50 0
-47 -50 0
7 12 51 0
-7 -51 0
-12 -51 0
51 8 52 0
-51 -52 0
-8 -52 0
-51 -8 53 0
51 -53 0
8 -53 0
52 53 54 0
-52 -54 0
-53 -54 0
54 55 56 0
-54 -56 0
-55 -56 0
-54 -55 57 0
54 -57 0
55 -57 0
56 57 58 0
-56 -58 0
-57 -58 0
50 -58 59 0
-50 -59 0
58 -59 0
59 57 60 0
-59 -60 0
-57 -60 0
9 12 61 0
-9 -61 0
-12 -61 0
61 10 62 0
-61 -62 0
-10 -62 0
-61 -10 63 0
61 -63 0
10 -63 0
62 63 64 0
-62 -64 0
-63 -64 0
64 65 66 0
-64 -66 0
-65 -66 0
-64 -65 67 0
64 -67 0
65 -67 0
66 67 68 0
-66 -68 0
-67 -68 0
60 -68 69 0
-60 -69 0
68 -69 0
69 67 70 0
-69 -70 0
-67 -70 0
11 12 71 0
-11 -71 0
-12 -71 0
71 14 72 0
-71 -72 0
-14 -72 0
-71 -14 73 0
71 -73 0
14 -73 0
72 73 74 0
-72 -74 0
-73 -74 0
74 75 76 0
-74 -76 0
-75 -76 0
-74 -75 77 0
74 -77 0
75 -77 0
76 77 78 0
-76 -78 0
-77 -78 0
70 -78 79 0
-70 -79 0
78 -79 0
79 77 80 0
-79 -80 0
-77 -80 0
-19 80 81 0
19 -81 0
-80 -81 0
19 -80 82 0
-19 -82 0
80 -82 0
81 82 83 0
-81 -83 0
-82 -83 0
35 1 84 0
-35 -84 0
-1 -84 0
-40 48 85 0
40 -85 0
-48 -85 0
85 49 86 0
-85 -86 0
-49 -86 0
86 36 87 0
-86 -87 0
-36 -87 0
-60 68 88 0
60 -88 0
-68 -88 0
88 69 89 0
-88 -89 0
-69 -89 0
-87 89 90 0
87 -90 0
-89 -90 0
27 33 91 0
-27 -91 0
-33 -91 0
-90 91 92 0
90 -92 0
-91 -92 0
84 -92 93 0
-84 -93 0
92 -93 0
-27 37 94 0
27 -94 0
-37 -94 0
-50 58 95 0
50 -95 0
-58 -95 0
95 59 96 0
-95 -96 0
-59 -96 0
94 96 97 0
-94 -97 0
-96 -97 0
-70 78 98 0
70 -98 0
-78 -98 0
98 79 99 0
-98 -99 0
-79 -99 0
-97 99 100 0
97 -100 0
-99 -100 0
-93 -100 101 0
93 -101 0
100 -101 0
83 -101 102 0
-83 -102 0
101 -102 0
-102 0
